100
32
29
18
29
27
24
7
11
6
27
1
6
8
13
13
1
16
2
1
2
1
1
18
2
2
1
2
1
1
1
1
17
21
2
2
2
17
1
1
6
5
2
1
3
2
1
3
1
4
2
17
3
1
18
2
7
4
1
2
1
2
4
17
1
1
2
1
2
17
17
3
1
5
1
18
1
1
2
4
1
3
1
5
3
1
1
3
1
1
2
6
4
3
1
3
3
1
1
7
3
1